000 000 000 000 000 000 000 000 000 000 000 000 -99 000 000 000 000 003 003 004 010 012 040 052 044 075 029 020 015 025 072
000 000 000 000 000 000 000 000 000 001 000 000 000 000 000 001 002 012 025 021 024 026 037 048 080 080 069 100 056 043 096
000 000 000 000 000 000 000 000 001 001 002 000 000 001 003 006 016 011 025 043 021 043 047 078 109 111 082 085 128 061 073
000 000 000 000 000 000 000 001 001 001 003 001 001 003 009 014 021 018 024 034 033 040 065 058 072 152 146 137 187 089 047
001 002 000 000 000 001 000 000 000 001 003 002 002 007 015 025 027 024 024 025 042 020 054 056 068 131 149 087 123 158 061
001 003 001 000 001 004 002 001 001 002 002 005 006 009 023 038 033 023 018 041 029 044 031 050 085 114 100 069 107 134 058
001 001 000 000 001 003 004 001 002 004 006 007 009 013 010 031 033 034 010 029 022 017 020 052 075 073 100 051 045 092 056
002 001 001 000 000 002 003 003 003 005 004 007 013 021 017 020 011 011 005 012 012 007 008 061 061 057 061 046 035 055 046
000 001 001 001 002 003 003 005 004 007 006 007 023 037 022 008 006 005 002 001 005 001 006 044 060 052 048 049 048 048 041
001 000 000 000 001 002 002 002 005 005 002 009 022 029 013 002 002 001 000 000 001 001 001 012 075 066 034 047 062 066 082
003 001 002 002 001 001 001 001 002 003 004 009 018 010 020 002 001 000 000 000 000 001 001 008 028 024 022 054 060 080 072
004 003 005 005 004 001 000 001 001 003 004 008 010 004 012 002 000 000 000 000 000 000 000 003 013 007 020 031 046 080 041
006 004 004 006 003 002 001 002 002 003 004 007 004 003 003 002 000 000 000 000 000 000 000 000 002 005 007 011 016 021 016
003 002 003 006 002 002 001 002 001 001 003 003 003 003 003 002 001 000 000 000 000 000 000 000 001 002 001 003 010 005 010
004 002 001 002 001 002 002 003 001 000 001 001 001 003 002 002 001 001 001 000 000 000 -99 000 000 001 001 002 001 004 001
001 003 003 001 000 001 002 001 001 000 000 000 001 003 002 003 002 001 001 000 000 000 000 000 000 000 000 001 001 002 001
000 001 001 000 000 001 000 001 001 000 000 000 001 001 003 004 003 001 000 000 000 000 000 000 000 000 000 000 000 000 000
000 000 000 000 000 000 000 000 001 001 001 001 002 002 003 003 002 001 000 000 000 000 000 000 000 000 000 000 000 000 000
000 000 000 000 000 000 000 000 000 001 000 000 001 001 002 002 000 000 000 000 000 000 000 000 000 000 000 000 000 000 000
000 000 000 000 000 000 000 000 000 000 000 001 000 001 001 001 000 000 000 000 000 000 000 -99 -99 000 000 -99 -99 000 000
000 000 000 000 000 000 000 000 000 000 000 000 000 000 000 000 000 000 000 000 000 000 000 -99 -99 -99 -99 -99 -99 -99 -99
000 000 000 000 000 000 000 000 000 000 000 000 000 000 000 000 000 000 000 000 000 000 000 -99 -99 -99 -99 -99 -99 -99 -99
000 000 000 000 000 000 000 000 000 000 000 000 000 000 000 000 000 000 000 000 000 000 000 -99 -99 -99 -99 -99 -99 -99 -99
000 000 000 000 000 000 000 000 000 000 000 000 000 000 000 000 000 000 000 000 000 000 000 -99 -99 -99 -99 -99 -99 -99 -99
000 000 000 000 000 000 000 000 000 000 000 000 000 000 000 000 000 000 000 000 000 000 000 -99 -99 -99 -99 -99 -99 -99 000
000 000 000 000 000 000 000 000 000 000 000 000 000 000 000 000 000 000 000 000 000 000 000 -99 -99 -99 -99 -99 -99 000 000
000 000 000 000 000 000 000 000 000 000 000 000 000 000 000 000 000 000 000 000 000 000 000 -99 -99 -99 -99 -99 -99 000 000
000 000 000 000 000 000 000 000 000 000 000 000 000 000 000 000 000 000 000 000 000 000 000 -99 -99 -99 -99 -99 -99 000 000
000 000 000 000 000 000 000 000 000 000 000 000 000 000 000 000 000 000 000 000 000 000 -99 -99 -99 -99 -99 -99 -99 000 000
000 000 000 000 000 000 000 000 000 000 000 000 000 000 000 000 000 000 000 000 000 000 -99 -99 -99 -99 -99 -99 -99 -99 000
000 000 000 000 000 000 000 000 000 000 000 000 000 000 000 000 000 000 000 000 000 000 -99 000 000 -99 -99 -99 -99 -99 000
000 000 000 000 000 000 000 000 000 000 000 000 000 000 000 000 000 000 000 000 000 000 000 000 000 000 -99 -99 -99 -99 000
000 000 000 000 000 000 000 000 000 000 000 000 000 000 000 000 000 000 000 000 000 000 000 000 000 000 -99 -99 -99 -99 000
-99 000 000 000 000 000 000 000 000 000 000 000 000 001 000 000 000 000 000 000 000 000 000 000 000 000 000 000 000 000 000
-99 -99 000 000 000 000 000 000 -99 -99 000 000 000 001 000 000 000 000 000 000 000 000 000 000 000 000 000 000 000 000 000
-99 -99 -99 000 000 000 000 -99 -99 000 000 000 000 000 000 000 000 001 000 001 000 000 000 000 000 000 000 000 000 -99 000
000 -99 -99 000 -99 -99 -99 -99 -99 -99 000 000 000 000 000 000 000 001 000 000 000 000 000 000 000 000 000 000 000 -99 000
000 000 -99 000 000 -99 -99 000 -99 -99 -99 -99 000 000 000 000 000 000 000 000 000 000 000 000 000 -99 -99 -99 -99 -99 -99
000 000 000 000 -99 -99 000 000 -99 -99 -99 -99 -99 000 000 000 000 000 000 000 000 000 000 000 000 000 -99 -99 -99 -99 -99
000 000 000 000 -99 -99 000 000 -99 -99 -99 000 000 000 000 000 000 000 000 000 000 000 000 000 000 000 000 -99 -99 -99 -99
-99 000 000 000 -99 -99 -99 -99 -99 -99 -99 000 000 000 000 -99 000 000 000 000 000 -99 000 000 000 000 000 -99 -99 -99 -99
000 000 -99 -99 -99 -99 -99 -99 -99 -99 000 000 000 000 -99 000 -99 -99 000 -99 -99 -99 000 000 000 -99 -99 -99 -99 -99 -99
000 000 -99 -99 -99 -99 -99 -99 -99 -99 000 000 000 -99 -99 000 -99 -99 000 -99 -99 -99 -99 000 000 000 -99 -99 -99 -99 -99
-99 -99 -99 -99 -99 -99 -99 -99 -99 -99 -99 000 000 -99 000 000 000 000 000 -99 000 -99 -99 -99 000 000 -99 -99 -99 -99 -99
-99 -99 -99 -99 -99 -99 -99 -99 -99 -99 -99 -99 -99 -99 000 -99 -99 -99 000 000 000 -99 -99 000 000 -99 -99 -99 -99 -99 -99
-99 -99 -99 -99 -99 -99 -99 -99 -99 -99 -99 -99 -99 -99 000 -99 -99 000 000 000 -99 -99 000 000 000 000 -99 -99 -99 -99 -99
-99 -99 -99 -99 -99 -99 -99 -99 -99 -99 -99 -99 -99 000 -99 -99 -99 000 000 000 -99 -99 000 000 000 000 -99 -99 000 -99 -99
-99 -99 -99 -99 -99 -99 -99 -99 -99 -99 -99 -99 000 000 -99 -99 -99 000 000 -99 -99 -99 000 000 000 -99 -99 000 000 -99 -99
-99 -99 -99 -99 -99 -99 -99 -99 -99 -99 -99 -99 -99 000 -99 -99 -99 -99 -99 -99 000 000 000 000 -99 -99 -99 000 000 000 -99
-99 -99 -99 -99 -99 -99 -99 -99 -99 -99 -99 -99 -99 -99 -99 -99 -99 -99 -99 -99 000 000 -99 -99 -99 -99 -99 000 -99 -99 -99
-99 -99 -99 -99 -99 -99 -99 -99 -99 -99 -99 -99 -99 -99 -99 -99 -99 -99 -99 -99 000 000 -99 -99 -99 -99 -99 -99 -99 -99 -99
-99 -99 -99 -99 -99 -99 -99 -99 -99 -99 -99 -99 -99 -99 -99 -99 -99 -99 -99 000 000 -99 -99 -99 -99 -99 -99 -99 -99 -99 -99
-99 -99 -99 -99 -99 -99 -99 -99 -99 -99 -99 -99 -99 -99 -99 -99 -99 -99 -99 000 -99 -99 -99 -99 -99 -99 -99 -99 -99 -99 -99
-99 -99 -99 -99 -99 -99 -99 -99 -99 -99 -99 -99 -99 -99 -99 -99 -99 -99 000 -99 -99 -99 -99 -99 -99 -99 -99 -99 -99 -99 -99
-99 -99 -99 -99 -99 -99 -99 -99 -99 -99 -99 -99 -99 -99 -99 -99 -99 -99 -99 -99 -99 -99 -99 -99 -99 -99 -99 -99 -99 -99 -99
